104421
17,36,12,72,63,0,9,28,13,69,61,79,44,45,53,70,65,35,25,75,66,19,76,8,31,73,57,16,55,6,26,32,15,50,71,80,46,48,33,59,42,56,2,11,22,54,41,24,68,14,60,5,78,29,1,37,34,27,7,82,77,40,51,38,62,3,49,64,52,58,67,74,10,39,81,43,21,4,18,30,23,47,20
